certificates/rado_a10_c176_N25.drat
18 17 -25 0
17 -24 -25 0
-24 -25 0
d 17 -24 -25 0
23 -25 0
-25 0
-23 0
17 0
-11 0
19 0
-5 0
-3 0
-13 0
18 0
-14 0
-22 0
-24 0
-21 0
-12 0
-4 0
-15 0
16 0
-2 0
-10 0
-20 0
-1 0
0
